NAME : graph21
COMMENT : H Algorithm Solution by Oscar Riveros [http://twitter.com/maxtuno]
TYPE : TOUR
DIMENSION : 180
TOUR_SECTION
55
131
24
49
37
152
78
41
48
130
170
3
160
103
129
179
45
126
138
72
85
28
56
38
115
29
142
96
32
132
33
84
150
92
65
59
123
141
9
47
61
147
25
90
16
164
46
20
30
110
137
118
21
169
140
172
156
81
34
69
53
39
17
6
40
171
89
176
128
54
104
99
107
66
74
101
149
35
174
124
80
8
166
36
73
155
67
120
121
112
136
62
122
2
83
153
27
95
11
42
127
139
175
143
44
163
161
154
97
86
177
22
144
167
18
108
52
57
87
63
134
148
178
109
43
93
168
58
26
151
75
7
4
133
113
111
158
116
173
51
64
23
88
157
19
162
165
79
10
145
50
1
12
100
76
68
77
60
82
119
180
94
125
106
5
114
14
31
98
117
91
13
71
15
135
146
70
102
159
105
-1
EOF
